p cnf 12 50 
11 -10 -8 0
1 5 -8 0
6 3 12 0
11 -8 -2 0
6 3 7 0
-11 -5 3 0
-3 -5 -7 0
-3 4 8 0
10 -8 -3 0
-3 -4 -5 0
-12 10 9 0
-9 -12 5 0
-1 -11 -9 0
-12 -11 5 0
-12 11 -10 0
-10 8 2 0
1 11 2 0
8 9 -5 0
10 -3 1 0
4 -6 -11 0
-7 -3 -12 0
11 7 -6 0
-11 2 12 0
-1 4 12 0
8 7 -9 0
-2 8 3 0
8 9 -3 0
9 -11 -5 0
2 3 8 0
3 8 -7 0
-6 -12 -4 0
-9 8 -10 0
10 -2 -7 0
7 4 8 0
-2 10 -7 0
-7 -11 -1 0
7 -3 -4 0
6 -1 3 0
2 -1 -11 0
4 -1 12 0
-9 8 -7 0
-8 -2 11 0
-10 -12 -5 0
-6 -10 1 0
-12 4 -5 0
8 -12 -11 0
10 11 -4 0
1 2 7 0
-2 -9 7 0
-3 -10 8 0
